c A SAT instance generated from a 3-CNF formula that had 30 clauses and 10 variables
p cnf 10 30
1 -3 6 0
-6 8 -1 0
5 1 2 0
-5 -3 7 0
1 2 4 0
-7 -2 -1 0
2 -9 -1 0
5 -10 2 0
-10 -2 -6 0
6 -1 9 0
6 5 7 0
9 10 -2 0
3 1 -6 0
9 8 7 0
3 4 -10 0
-6 -8 5 0
3 -9 -4 0
-10 9 -4 0
3 5 -8 0
-7 3 -10 0
4 8 -2 0
7 3 4 0
6 4 3 0
1 -8 5 0
7 -6 -9 0
9 6 -7 0
-1 -9 2 0
-8 -6 -9 0
-4 2 1 0
-7 -1 6 0
